259
2176
1034
453
737
291
172
1495
298
286
2120
233
132
2751
170
19
868
132
215
67
1595
1065
1479
1912
2254
794
481
935
256
1992
494
1425
151
0
245
117
17
965
81
811
117
428
571
788
212
2145
435
41
2035
196
1510
2177
1092
587
145
253
2051
392
310
509
25
628
2901
1936
96
755
556
537
1448
62
2114
200
2781
536
38
261
136
499
933
632
485
57
23
940
1029
775
282
141
988
887
646
127
2058
1022
17
1473
1296
16
378
449
